(set-option :print-success false)
(set-logic QF_UF)
(declare-sort x22 0)
(declare-sort x150 0)
(declare-fun x75 (x150 x150) x150)
(declare-fun x66 () x150)
(declare-fun x55 () x150)
(declare-fun x121 () x150)
(declare-fun x94 () x150)
(declare-fun x47 (x150 x150) x150)
(declare-fun x103 () x150)
(assert (let ((x30 (x75 x103 x66)) (x132 (x75 x66 x103)) (x3 (x75 x66 x121)) (x156 (x75 x66 x66)) (x100 (x75 x94 x121)) (x40 (x75 x94 x66)) (x88 (x75 x55 x55)) (x77 (x75 x55 x94)) (x37 (x75 x94 x103)) (x152 (x75 x103 x55)) (x140 (x75 x94 x94)) (x20 (x75 x103 x121)) (x46 (x75 x94 x55)) (x14 (x75 x121 x94)) (x86 (x75 x121 x121)) (x117 (x75 x121 x66)) (x56 (x75 x121 x55)) (x123 (x75 x66 x55)) (x116 (x75 x55 x66)) (x19 (x75 x103 x94)) (x52 (x75 x66 x94)) (x67 (x75 x121 x103)) (x118 (x75 x103 x103)) (x69 (x75 x55 x121)) (x84 (x75 x55 x103))) (let ((x41 (= x121 x118)) (x137 (= x66 x69)) (x4 (= x121 x88)) (x44 (= x66 x37)) (x39 (= x37 x94)) (x61 (= x52 x66)) (x50 (= x30 x55)) (x109 (= x94 x152)) (x26 (= x77 x55)) (x153 (= x67 x94)) (x119 (= x30 x121)) (x35 (= x103 x156)) (x27 (= x94 x117)) (x141 (= x116 x55)) (x72 (= x14 x103)) (x57 (= x121 x152)) (x18 (= x121 x69)) (x91 (= x121 x123)) (x62 (= x66 x86)) (x110 (= x55 x117)) (x24 (= x103 x86)) (x6 (= x103 x88)) (x73 (= x66 x20)) (x17 (= x121 x116)) (x104 (= x152 x103)) (x108 (= x69 x103)) (x82 (= x103 x3)) (x12 (= x103 x30)) (x80 (= x20 x55)) (x45 (= x118 x103)) (x151 (= x100 x94)) (x33 (= x116 x94)) (x16 (= x55 x118)) (x13 (= x20 x121)) (x36 (= x67 x121)) (x49 (= x40 x121)) (x124 (= x84 x66)) (x7 (= x94 x56)) (x28 (= x46 x94)) (x120 (= x103 x123)) (x53 (= x69 x94)) (x131 (= x117 x103)) (x43 (= x94 x140)) (x64 (= x132 x103)) (x68 (= x117 x66)) (x125 (= x40 x103)) (x58 (= x94 x156)) (x147 (= x94 x77)) (x96 (= x121 x84)) (x60 (= x132 x66)) (x38 (= x152 x66)) (x95 (= x103 x116)) (x159 (= x55 x46)) (x136 (= x88 x66)) (x102 (= x55 x56)) (x65 (= x86 x55)) (x11 (= x121 x86)) (x78 (= x19 x94)) (x21 (= x121 x100)) (x133 (= x69 x55)) (x139 (= x118 x94)) (x157 (= x123 x94)) (x114 (= x152 x55)) (x155 (= x52 x103)) (x97 (= x84 x94)) (x89 (= x37 x55)) (x115 (= x94 x86)) (x144 (= x67 x55)) (x54 (= x140 x55)) (x111 (= x30 x66)) (x112 (= x46 x66)) (x5 (= x121 x156)) (x31 (= x121 x140)) (x146 (= x100 x55)) (x93 (= x94 x52)) (x23 (= x14 x121)) (x127 (= x55 x132)) (x8 (= x3 x94)) (x29 (= x103 x37)) (x83 (= x94 x20)) (x126 (= x67 x103)) (x129 (= x121 x56)) (x128 (= x55 x19)) (x74 (= x55 x14)) (x81 (= x132 x121)) (x113 (= x56 x66)) (x122 (= x66 x140)) (x87 (= x94 x132)) (x51 (= x66 x14)) (x90 (= x3 x55)) (x85 (= x66 x116)) (x101 (= x121 x52)) (x59 (= x103 x84)) (x148 (= x55 x40)) (x92 (= x77 x103)) (x2 (= x88 x94)) (x106 (= x40 x66)) (x42 (= x46 x103)) (x158 (= x77 x121)) (x48 (= x103 x140)) (x130 (= x30 x94)) (x138 (= x46 x121)) (x70 (= x66 x19)) (x105 (= x94 x40)) (x145 (= x88 x55)) (x154 (= x66 x67)) (x32 (= x103 x56)) (x25 (= x100 x103)) (x79 (= x3 x121)) (x34 (= x66 x156)) (x63 (= x66 x3)) (x143 (= x156 x55)) (x142 (= x121 x19)) (x10 (= x55 x52)) (x1 (= x55 x123)) (x107 (= x121 x117)) (x71 (= x103 x19)) (x76 (= x84 x55)) (x135 (= x118 x66)) (x15 (= x66 x123)) (x9 (= x77 x66)) (x134 (= x94 x14)) (x99 (= x100 x66)) (x149 (= x20 x103)) (x98 (= x37 x121))) (and (and (and (and (and (and (and (or (or (or x158 (or x142 x31)) x23) x101) (or (or (or x138 (or x98 x31)) x21) x49)) (and (and (or (or x146 (or (or x89 x54) x159)) x148) (or (or x74 (or (or x54 x128) x26)) x10)) (and (and (or x125 (or x25 (or (or x48 x29) x42))) (or (or (or (or x48 x71) x92) x72) x155)) (and (or (or x134 (or x147 (or x78 x43))) x93) (or (or x151 (or (or x39 x43) x28)) x105))))) (and (or (or (or x112 (or x122 x44)) x99) x106) (or (or x51 (or (or x70 x122) x9)) x61))) (and (and (or (or x73 (or x38 (or x135 x70))) x111) (or (or (or (or x44 x135) x124) x154) x60)) (and (and (and (or (or x144 (or (or x16 x89) x76)) x127) (or (or (or (or x16 x128) x114) x80) x50)) (and (and (or (or (or x97 (or x39 x139)) x153) x87) (or (or (or x109 (or x78 x139)) x83) x130)) (and (or x12 (or x149 (or x104 (or x45 x71)))) (or x64 (or (or x59 (or x45 x29)) x126))))) (and (or x119 (or x13 (or (or x142 x41) x57))) (or x81 (or (or (or x41 x98) x96) x36)))))) (and (and (or (or (or x136 (or x38 x112)) x113) x15) (or (or x137 (or (or x124 x9) x136)) x85)) (and (and (and (and (or (or x32 (or (or x42 x104) x6)) x120) (or (or (or x6 (or x92 x59)) x108) x95)) (and (or x157 (or (or (or x28 x109) x2) x7)) (or (or (or (or x97 x147) x2) x53) x33))) (and (or x141 (or (or (or x76 x26) x145) x133)) (or (or x102 (or (or x159 x114) x145)) x1))) (and (or (or (or (or x138 x57) x4) x129) x91) (or (or (or x4 (or x158 x96)) x18) x17))))) (and (and (or (or (or x113 (or x154 x51)) x62) x68) (or x63 (or x62 (or (or x99 x73) x137)))) (and (and (and (or x110 (or x65 (or x102 (or x144 x74)))) (or (or (or x133 (or x146 x80)) x65) x90)) (and (and (or x131 (or x24 (or (or x72 x126) x32))) (or (or x24 (or x108 (or x149 x25))) x82)) (and (or x27 (or x115 (or x7 (or x134 x153)))) (or x8 (or (or x53 (or x151 x83)) x115))))) (and (or (or (or x129 (or x36 x23)) x11) x107) (or x79 (or x11 (or x18 (or x21 x13)))))))) (and (and (or x34 (or (or (or x111 x106) x85) x68)) (or x34 (or x63 (or (or x61 x60) x15)))) (and (and (or (or (or (or x101 x81) x91) x79) x5) (or x5 (or x107 (or (or x49 x119) x17)))) (and (and (or x143 (or (or (or x50 x148) x141) x110)) (or (or (or (or x127 x10) x1) x90) x143)) (and (and (or x58 (or (or (or x105 x130) x33) x27)) (or x58 (or (or x157 (or x87 x93)) x8))) (and (or (or (or (or x12 x125) x95) x131) x35) (or (or x82 (or x120 (or x155 x64))) x35))))))))))
(assert (or (and (and (not (= (x75 (x75 x121 x66) x121) x66)) (and (and (not (= (x75 (x75 x94 x66) x94) x66)) (not (= (x75 (x75 x103 x66) x103) x66))) (not (= x66 (x75 (x75 x55 x66) x55))))) (not (= (x75 (x75 x66 x66) x66) x66))) (or (or (and (and (and (and (not (= x55 (x75 (x75 x103 x55) x103))) (not (= (x75 (x75 x94 x55) x94) x55))) (not (= x55 (x75 (x75 x55 x55) x55)))) (not (= x55 (x75 (x75 x121 x55) x121)))) (not (= (x75 (x75 x66 x55) x66) x55))) (or (and (not (= x103 (x75 (x75 x66 x103) x66))) (and (and (and (not (= (x75 (x75 x94 x103) x94) x103)) (not (= (x75 (x75 x103 x103) x103) x103))) (not (= x103 (x75 (x75 x55 x103) x55)))) (not (= x103 (x75 (x75 x121 x103) x121))))) (and (and (not (= (x75 (x75 x121 x94) x121) x94)) (and (not (= (x75 (x75 x55 x94) x55) x94)) (and (not (= (x75 (x75 x103 x94) x103) x94)) (not (= (x75 (x75 x94 x94) x94) x94))))) (not (= (x75 (x75 x66 x94) x66) x94))))) (and (and (and (not (= x121 (x75 (x75 x55 x121) x55))) (and (not (= (x75 (x75 x103 x121) x103) x121)) (not (= x121 (x75 (x75 x94 x121) x94))))) (not (= x121 (x75 (x75 x121 x121) x121)))) (not (= (x75 (x75 x66 x121) x66) x121))))))
(assert (and (and (and (not (= x55 (x75 x55 x55))) (and (not (= (x75 x94 x94) x94)) (not (= x103 (x75 x103 x103))))) (not (= (x75 x121 x121) x121))) (not (= x66 (x75 x66 x66)))))
(assert (or (or (or (or (= (x75 x94 (x75 x94 x94)) x94) (= x103 (x75 x103 (x75 x103 x103)))) (= (x75 x55 (x75 x55 x55)) x55)) (= x121 (x75 x121 (x75 x121 x121)))) (= x66 (x75 x66 (x75 x66 x66)))))
(assert (and (or (or (or (or (not (= (x75 x66 (x75 x66 x94)) x94)) (not (= x103 (x75 x66 (x75 x66 x103))))) (not (= x55 (x75 x66 (x75 x66 x55))))) (not (= (x75 x66 (x75 x66 x121)) x121))) (not (= x66 (x75 x66 (x75 x66 x66))))) (and (or (or (not (= x121 (x75 x121 (x75 x121 x121)))) (or (not (= (x75 x121 (x75 x121 x55)) x55)) (or (not (= x103 (x75 x121 (x75 x121 x103)))) (not (= x94 (x75 x121 (x75 x121 x94))))))) (not (= (x75 x121 (x75 x121 x66)) x66))) (and (or (not (= (x75 x55 (x75 x55 x66)) x66)) (or (or (or (not (= (x75 x55 (x75 x55 x94)) x94)) (not (= x103 (x75 x55 (x75 x55 x103))))) (not (= x55 (x75 x55 (x75 x55 x55))))) (not (= (x75 x55 (x75 x55 x121)) x121)))) (and (or (not (= (x75 x103 (x75 x103 x66)) x66)) (or (not (= x121 (x75 x103 (x75 x103 x121)))) (or (not (= x55 (x75 x103 (x75 x103 x55)))) (or (not (= (x75 x103 (x75 x103 x103)) x103)) (not (= (x75 x103 (x75 x103 x94)) x94)))))) (or (not (= x66 (x75 x94 (x75 x94 x66)))) (or (or (not (= (x75 x94 (x75 x94 x55)) x55)) (or (not (= (x75 x94 (x75 x94 x94)) x94)) (not (= x103 (x75 x94 (x75 x94 x103)))))) (not (= x121 (x75 x94 (x75 x94 x121)))))))))))
(assert (let ((x46 (x75 x121 x121)) (x100 (x75 x66 x66)) (x37 (x75 x55 x55)) (x140 (x75 x103 x103)) (x43 (x75 x94 x94))) (or (and (not (= x66 x100)) (and (not (= x46 x66)) (and (and (not (= x43 x66)) (not (= x66 x140))) (not (= x66 x37))))) (or (or (and (not (= x55 x100)) (and (and (and (not (= x55 x43)) (not (= x140 x55))) (not (= x55 x37))) (not (= x55 x46)))) (or (and (not (= x100 x103)) (and (and (not (= x37 x103)) (and (not (= x140 x103)) (not (= x103 x43)))) (not (= x46 x103)))) (and (and (and (not (= x94 x37)) (and (not (= x94 x43)) (not (= x140 x94)))) (not (= x46 x94))) (not (= x94 x100))))) (and (not (= x121 x100)) (and (not (= x46 x121)) (and (not (= x121 x37)) (and (not (= x43 x121)) (not (= x121 x140))))))))))
(assert (let ((x54 (x75 x103 x55)) (x122 (x75 x121 x55)) (x37 (x75 x55 x94)) (x152 (x75 x66 x121)) (x39 (x75 x94 x121)) (x40 (x75 x94 x103)) (x29 (x75 x55 x66)) (x14 (x75 x66 x103)) (x20 (x75 x94 x66)) (x140 (x75 x103 x94)) (x43 (x75 x94 x94)) (x19 (x75 x55 x103)) (x46 (x75 x121 x94)) (x118 (x75 x121 x121)) (x45 (x75 x121 x66)) (x100 (x75 x66 x94)) (x48 (x75 x103 x103)) (x71 (x75 x55 x121)) (x78 (x75 x66 x55)) (x52 (x75 x94 x55)) (x77 (x75 x121 x103)) (x30 (x75 x103 x66)) (x139 (x75 x103 x121)) (x84 (x75 x66 x66)) (x31 (x75 x55 x55))) (and (and (and (and (not (= x29 x84)) (and (and (not (= x84 x30)) (and (and (not (= x29 x30)) (and (not (= x20 x84)) (and (and (not (= x30 x20)) (not (= x29 x20))) (not (= x20 x45))))) (not (= x45 x30)))) (not (= x29 x45)))) (not (= x45 x84))) (and (and (and (not (= x78 x122)) (and (not (= x31 x78)) (and (not (= x31 x122)) (and (and (and (not (= x31 x54)) (and (not (= x78 x52)) (and (not (= x122 x52)) (and (not (= x52 x54)) (not (= x52 x31)))))) (not (= x54 x122))) (not (= x54 x78)))))) (and (and (not (= x14 x77)) (and (not (= x19 x14)) (and (and (not (= x14 x48)) (and (and (and (not (= x14 x40)) (and (and (not (= x19 x40)) (not (= x48 x40))) (not (= x40 x77)))) (not (= x19 x48))) (not (= x77 x48)))) (not (= x77 x19))))) (and (and (and (not (= x46 x37)) (and (not (= x100 x140)) (and (and (and (and (and (not (= x37 x43)) (not (= x43 x140))) (not (= x43 x46))) (not (= x43 x100))) (not (= x37 x140))) (not (= x140 x46))))) (not (= x100 x37))) (not (= x46 x100))))) (and (not (= x152 x118)) (and (not (= x71 x152)) (and (and (and (not (= x118 x139)) (and (not (= x139 x71)) (and (not (= x152 x39)) (and (not (= x39 x118)) (and (not (= x71 x39)) (not (= x39 x139))))))) (not (= x152 x139))) (not (= x71 x118))))))) (and (and (and (and (and (and (not (= x14 x152)) (and (not (= x14 x78)) (and (not (= x100 x84)) (and (and (not (= x78 x100)) (not (= x14 x100))) (not (= x100 x152)))))) (not (= x14 x84))) (not (= x152 x78))) (not (= x78 x84))) (not (= x152 x84))) (and (and (not (= x45 x118)) (and (and (and (and (and (and (and (not (= x46 x118)) (and (not (= x122 x46)) (not (= x46 x77)))) (not (= x46 x45))) (not (= x122 x77))) (not (= x77 x118))) (not (= x77 x45))) (not (= x122 x118))) (not (= x122 x45)))) (and (and (and (not (= x39 x20)) (and (not (= x20 x52)) (and (and (and (not (= x39 x40)) (and (and (and (not (= x39 x43)) (and (not (= x43 x40)) (not (= x52 x43)))) (not (= x20 x43))) (not (= x52 x40)))) (not (= x20 x40))) (not (= x52 x39))))) (and (and (and (and (and (not (= x48 x139)) (and (not (= x54 x48)) (and (and (not (= x139 x140)) (and (not (= x140 x48)) (not (= x140 x54)))) (not (= x30 x140))))) (not (= x48 x30))) (not (= x54 x139))) (not (= x54 x30))) (not (= x30 x139)))) (and (not (= x71 x29)) (and (not (= x31 x29)) (and (and (not (= x19 x29)) (and (not (= x19 x71)) (and (and (and (and (not (= x37 x31)) (not (= x19 x37))) (not (= x37 x71))) (not (= x37 x29))) (not (= x19 x31))))) (not (= x31 x71)))))))))))
(assert (let ((x97 (x75 x103 x103)) (x59 (x75 x121 x103)) (x76 (x75 x121 x55)) (x128 (x75 x94 x103)) (x67 (x75 x94 x94)) (x38 (x75 x66 x121)) (x142 (x75 x55 x94)) (x92 (x75 x103 x121)) (x26 (x75 x55 x121)) (x44 (x75 x66 x94)) (x159 (x75 x55 x66)) (x88 (x75 x103 x66)) (x114 (x75 x66 x55)) (x56 (x75 x55 x55)) (x72 (x75 x66 x66)) (x112 (x75 x121 x66)) (x16 (x75 x94 x55)) (x109 (x75 x103 x55)) (x9 (x75 x121 x121)) (x2 (x75 x55 x103)) (x98 (x75 x94 x121)) (x89 (x75 x103 x94)) (x69 (x75 x66 x103)) (x70 (x75 x94 x66)) (x41 (x75 x121 x94))) (let ((x100 (not (= x94 x142))) (x31 (not (= x94 x92))) (x61 (not (= x44 x66))) (x6 (not (= x103 x109))) (x135 (not (= x89 x103))) (x18 (not (= x55 x114))) (x140 (not (= x89 x94))) (x29 (not (= x94 x38))) (x122 (not (= x76 x94))) (x33 (not (= x98 x121))) (x28 (not (= x97 x103))) (x113 (not (= x55 x72))) (x95 (not (= x114 x121))) (x134 (not (= x103 x70))) (x20 (not (= x114 x94))) (x4 (not (= x26 x103))) (x145 (not (= x103 x41))) (x30 (not (= x159 x94))) (x3 (not (= x109 x55))) (x132 (not (= x103 x67))) (x129 (not (= x55 x70))) (x133 (not (= x55 x76))) (x87 (not (= x16 x121))) (x62 (not (= x97 x121))) (x85 (not (= x38 x66))) (x54 (not (= x59 x94))) (x124 (not (= x103 x9))) (x149 (not (= x142 x55))) (x74 (not (= x56 x55))) (x155 (not (= x76 x121))) (x1 (not (= x67 x66))) (x19 (not (= x109 x94))) (x43 (not (= x67 x94))) (x139 (not (= x94 x44))) (x146 (not (= x59 x55))) (x13 (not (= x55 x88))) (x11 (not (= x55 x159))) (x57 (not (= x103 x76))) (x32 (not (= x67 x55))) (x50 (not (= x97 x66))) (x86 (not (= x89 x55))) (x99 (not (= x67 x121))) (x52 (not (= x94 x98))) (x102 (not (= x98 x55))) (x125 (not (= x121 x69))) (x91 (not (= x41 x66))) (x77 (not (= x56 x94))) (x12 (not (= x121 x88))) (x153 (not (= x69 x103))) (x126 (not (= x72 x103))) (x117 (not (= x55 x128))) (x10 (not (= x112 x121))) (x60 (not (= x70 x66))) (x8 (not (= x109 x121))) (x84 (not (= x94 x72))) (x154 (not (= x112 x55))) (x110 (not (= x16 x66))) (x23 (not (= x55 x9))) (x96 (not (= x59 x103))) (x24 (not (= x55 x2))) (x136 (not (= x103 x44))) (x138 (not (= x103 x92))) (x157 (not (= x121 x2))) (x90 (not (= x66 x89))) (x36 (not (= x55 x44))) (x104 (not (= x2 x103))) (x118 (not (= x94 x69))) (x79 (not (= x98 x66))) (x39 (not (= x94 x9))) (x25 (not (= x55 x97))) (x63 (not (= x66 x88))) (x105 (not (= x121 x56))) (x101 (not (= x66 x109))) (x143 (not (= x2 x66))) (x49 (not (= x59 x66))) (x34 (not (= x66 x72))) (x148 (not (= x66 x128))) (x127 (not (= x121 x72))) (x40 (not (= x16 x94))) (x35 (not (= x121 x38))) (x130 (not (= x41 x121))) (x64 (not (= x121 x26))) (x15 (not (= x69 x66))) (x51 (not (= x38 x55))) (x141 (not (= x66 x142))) (x82 (not (= x44 x121))) (x83 (not (= x103 x159))) (x58 (not (= x92 x121))) (x111 (not (= x159 x66))) (x123 (not (= x103 x56))) (x137 (not (= x121 x128))) (x7 (not (= x103 x88))) (x71 (not (= x94 x70))) (x108 (not (= x16 x55))) (x21 (not (= x55 x69))) (x42 (not (= x16 x103))) (x158 (not (= x98 x103))) (x120 (not (= x9 x121))) (x106 (not (= x66 x114))) (x78 (not (= x26 x94))) (x53 (not (= x38 x103))) (x65 (not (= x55 x26))) (x116 (not (= x142 x103))) (x144 (not (= x55 x41))) (x17 (not (= x76 x66))) (x156 (not (= x70 x121))) (x14 (not (= x94 x41))) (x45 (not (= x94 x112))) (x27 (not (= x121 x59))) (x81 (not (= x66 x56))) (x151 (not (= x103 x114))) (x119 (not (= x92 x66))) (x152 (not (= x94 x88))) (x147 (not (= x103 x128))) (x80 (not (= x92 x55))) (x37 (not (= x94 x128))) (x131 (not (= x159 x121))) (x115 (not (= x103 x112))) (x48 (not (= x94 x2))) (x46 (not (= x94 x97))) (x5 (not (= x66 x9))) (x68 (not (= x112 x66))) (x93 (not (= x121 x142))) (x107 (not (= x26 x66))) (x73 (not (= x121 x89)))) (or (and (and (and (or x85 x68) (and (or x106 x111) (and (or x61 x60) (or x63 x15)))) (or x34 x34)) (and (and (and (and (or x107 x17) (and (and (or x141 x110) (or x143 x101)) (or x81 x81))) (or x106 x111)) (and (and (or x61 x60) (and (and (and (or x1 x1) (or x148 x90)) (or x141 x110)) (or x91 x79))) (and (or x63 x15) (and (or x119 x49) (and (and (or x90 x148) (or x50 x50)) (or x101 x143)))))) (and (or x85 x68) (and (or x5 x5) (and (and (or x119 x49) (or x79 x91)) (or x17 x107)))))) (or (or (or (and (and (and (or x45 x29) (and (and (or x122 x78) (and (or x54 x31) (or x52 x14))) (or x39 x39))) (and (and (and (or x71 x139) (and (and (and (or x43 x43) (or x140 x37)) (or x100 x40)) (or x14 x52))) (and (and (and (or x48 x19) (and (or x46 x46) (or x37 x140))) (or x31 x54)) (or x118 x152))) (and (and (or x122 x78) (and (and (or x48 x19) (or x100 x40)) (or x77 x77))) (or x30 x20)))) (and (or x84 x84) (and (and (or x30 x20) (and (or x139 x71) (or x118 x152))) (or x45 x29)))) (and (and (and (and (and (and (or x145 x158) (and (and (or x132 x132) (or x135 x147)) (or x42 x116))) (or x134 x136)) (and (and (and (and (or x28 x28) (or x147 x135)) (or x104 x6)) (or x138 x96)) (or x153 x7))) (and (or x151 x83) (and (and (or x123 x123) (and (or x116 x42) (or x104 x6))) (or x57 x4)))) (and (or x115 x53) (and (and (or x57 x4) (and (or x138 x96) (or x145 x158))) (or x124 x124)))) (and (or x126 x126) (and (and (or x151 x83) (and (or x153 x7) (or x136 x134))) (or x115 x53))))) (and (and (and (or x51 x154) (and (or x11 x18) (and (or x129 x36) (or x21 x13)))) (or x113 x113)) (and (and (and (or x11 x18) (and (and (and (or x3 x24) (or x149 x108)) (or x74 x74)) (or x65 x133))) (and (and (or x36 x129) (and (and (or x108 x149) (and (or x86 x117) (or x32 x32))) (or x102 x144))) (and (or x13 x21) (and (or x80 x146) (and (and (or x25 x25) (or x86 x117)) (or x3 x24)))))) (and (or x51 x154) (and (and (and (or x102 x144) (or x80 x146)) (or x133 x65)) (or x23 x23)))))) (and (and (and (or x35 x10) (and (or x120 x120) (and (or x64 x155) (and (or x58 x27) (or x33 x130))))) (and (and (and (and (or x27 x58) (and (and (or x73 x137) (or x62 x62)) (or x8 x157))) (or x12 x125)) (and (and (or x130 x33) (and (and (or x137 x73) (or x99 x99)) (or x93 x87))) (or x82 x156))) (and (or x95 x131) (and (or x155 x64) (and (or x105 x105) (and (or x87 x93) (or x157 x8))))))) (and (and (and (or x131 x95) (and (or x12 x125) (or x156 x82))) (or x10 x35)) (or x127 x127))))))))
(assert (not (and (= x94 (x75 x66 x66)) (and (= (x75 x66 x121) x66) (and (and (= x103 (x75 x66 x103)) (and (= x55 (x75 x66 x94)) (and (and (and (and (and (= x121 (x75 x121 x94)) (and (and (= x94 (x75 x55 x121)) (and (and (and (= x103 (x75 x55 x94)) (and (and (= x55 (x75 x103 x121)) (and (= x103 (x75 x103 x55)) (and (= (x75 x103 x103) x66) (and (= (x75 x103 x94) x94) (and (and (and (and (= (x75 x94 x94) x66) (= (x75 x94 x103) x55)) (= x94 (x75 x94 x55))) (= (x75 x94 x121) x121)) (= (x75 x94 x66) x103)))))) (= (x75 x103 x66) x121))) (= (x75 x55 x103) x121)) (= (x75 x55 x55) x66))) (= x55 (x75 x55 x66)))) (= x94 (x75 x121 x103))) (= (x75 x121 x55) x55)) (= (x75 x121 x121) x103)) (= x66 (x75 x121 x66))))) (= x121 (x75 x66 x55)))))))
(assert (let ((x31 (x75 x55 x55)) (x52 (x75 x94 x55)) (x78 (x75 x66 x55)) (x40 (x75 x94 x103)) (x39 (x75 x94 x121)) (x30 (x75 x103 x66)) (x54 (x75 x103 x55)) (x71 (x75 x55 x121)) (x118 (x75 x121 x121)) (x84 (x75 x66 x66)) (x139 (x75 x103 x121)) (x20 (x75 x94 x66)) (x46 (x75 x121 x94)) (x37 (x75 x55 x94)) (x45 (x75 x121 x66)) (x152 (x75 x66 x121)) (x19 (x75 x55 x103)) (x77 (x75 x121 x103)) (x122 (x75 x121 x55)) (x100 (x75 x66 x94)) (x14 (x75 x66 x103)) (x29 (x75 x55 x66)) (x48 (x75 x103 x103)) (x140 (x75 x103 x94)) (x43 (x75 x94 x94))) (or (or (and (and (not (= x121 (x75 x118 x118))) (and (and (not (= (x75 x39 x39) x94)) (not (= (x75 x139 x139) x103))) (not (= (x75 x71 x71) x55)))) (not (= (x75 x152 x152) x66))) (or (and (not (= x66 (x75 x78 x78))) (and (not (= (x75 x122 x122) x121)) (and (not (= (x75 x31 x31) x55)) (and (not (= (x75 x54 x54) x103)) (not (= (x75 x52 x52) x94)))))) (or (and (and (and (not (= (x75 x37 x37) x55)) (and (not (= x94 (x75 x43 x43))) (not (= x103 (x75 x140 x140))))) (not (= (x75 x46 x46) x121))) (not (= (x75 x100 x100) x66))) (and (not (= x66 (x75 x14 x14))) (and (not (= x121 (x75 x77 x77))) (and (and (not (= x94 (x75 x40 x40))) (not (= x103 (x75 x48 x48)))) (not (= x55 (x75 x19 x19))))))))) (and (and (and (not (= x55 (x75 x29 x29))) (and (not (= x103 (x75 x30 x30))) (not (= x94 (x75 x20 x20))))) (not (= (x75 x45 x45) x121))) (not (= (x75 x84 x84) x66))))))
(assert (let ((x19 (x75 x103 x55)) (x48 (x75 x55 x103)) (x84 (= x66 (x75 x66 x66))) (x52 (x75 x94 x121)) (x118 (x75 x66 x103)) (x152 (x75 x103 x66)) (x46 (= x103 (x75 x103 x103))) (x40 (x75 x94 x55)) (x31 (x75 x103 x121)) (x43 (= x94 (x75 x94 x94))) (x78 (x75 x55 x121)) (x20 (x75 x66 x55)) (x54 (x75 x121 x103)) (x77 (= x55 (x75 x55 x55))) (x139 (x75 x66 x94)) (x37 (x75 x94 x103)) (x122 (x75 x121 x55)) (x30 (x75 x55 x66)) (x29 (x75 x66 x121)) (x71 (x75 x94 x66)) (x100 (x75 x55 x94)) (x45 (x75 x121 x66)) (x14 (x75 x121 x94)) (x140 (x75 x103 x94)) (x39 (= (x75 x121 x121) x121))) (or (or (or (or (and (= x20 x66) (= x30 x66)) (or (and (= x66 x139) (= x71 x66)) (and (= x118 x66) (= x66 x152)))) (and (= x45 x66) (= x66 x29))) (and x84 x84)) (or (or (and (= x121 x29) (= x45 x121)) (or (or (or (and (= x54 x121) (= x121 x31)) (and (= x121 x52) (= x121 x14))) (and (= x78 x121) (= x121 x122))) (and x39 x39))) (or (or (and (= x30 x55) (= x55 x20)) (or (or (or (and (= x55 x100) (= x55 x40)) (and (= x55 x48) (= x55 x19))) (and x77 x77)) (and (= x55 x78) (= x55 x122)))) (or (or (or (or (or (and (= x94 x37) (= x140 x94)) (and x43 x43)) (and (= x40 x94) (= x100 x94))) (and (= x14 x94) (= x52 x94))) (and (= x94 x71) (= x94 x139))) (or (and (= x118 x103) (= x103 x152)) (or (and (= x103 x54) (= x103 x31)) (or (or (and x46 x46) (and (= x103 x37) (= x103 x140))) (and (= x103 x48) (= x103 x19)))))))))))
(assert (not (and (and (and (= (x75 x66 x55) x55) (and (= (x75 x66 x103) x66) (and (and (and (= x94 (x75 x121 x121)) (and (and (and (and (= x55 (x75 x55 x66)) (and (and (and (and (and (and (and (= x66 (x75 x103 x55)) (and (= (x75 x103 x103) x94) (and (and (= (x75 x94 x66) x103) (and (and (= x94 (x75 x94 x55)) (and (= x66 (x75 x94 x94)) (= (x75 x94 x103) x55))) (= (x75 x94 x121) x121))) (= x103 (x75 x103 x94))))) (= (x75 x103 x121) x55)) (= x121 (x75 x103 x66))) (= x94 (x75 x55 x94))) (= x103 (x75 x55 x103))) (= x121 (x75 x55 x55))) (= (x75 x55 x121) x66))) (= (x75 x121 x94) x55)) (= (x75 x121 x103) x121)) (= (x75 x121 x55) x103))) (= (x75 x121 x66) x66)) (= (x75 x66 x94) x121)))) (= x103 (x75 x66 x121))) (= (x75 x66 x66) x94))))
(assert (let ((x100 (x75 x66 x66)) (x140 (x75 x103 x103)) (x37 (x75 x55 x55)) (x46 (x75 x121 x121)) (x43 (x75 x94 x94))) (and (or (or (or (= x55 (x75 x37 x55)) (or (= (x75 x140 x103) x103) (= x94 (x75 x43 x94)))) (= x121 (x75 x46 x121))) (= x66 (x75 x100 x66))) (or (or (or (and (and (and (and (not (= x55 (x75 x94 (x75 x55 x94)))) (not (= (x75 x103 (x75 x55 x103)) x55))) (not (= x55 (x75 x55 x37)))) (not (= x55 (x75 x121 (x75 x55 x121))))) (not (= x55 (x75 x66 (x75 x55 x66))))) (or (and (and (and (and (not (= (x75 x103 x140) x103)) (not (= (x75 x94 (x75 x103 x94)) x103))) (not (= (x75 x55 (x75 x103 x55)) x103))) (not (= (x75 x121 (x75 x103 x121)) x103))) (not (= (x75 x66 (x75 x103 x66)) x103))) (and (not (= x94 (x75 x66 (x75 x94 x66)))) (and (and (not (= (x75 x55 (x75 x94 x55)) x94)) (and (not (= x94 (x75 x103 (x75 x94 x103)))) (not (= x94 (x75 x94 x43))))) (not (= x94 (x75 x121 (x75 x94 x121)))))))) (and (not (= x121 (x75 x66 (x75 x121 x66)))) (and (and (not (= x121 (x75 x55 (x75 x121 x55)))) (and (not (= x121 (x75 x94 (x75 x121 x94)))) (not (= (x75 x103 (x75 x121 x103)) x121)))) (not (= (x75 x121 x46) x121))))) (and (and (and (and (not (= x66 (x75 x94 (x75 x66 x94)))) (not (= (x75 x103 (x75 x66 x103)) x66))) (not (= x66 (x75 x55 (x75 x66 x55))))) (not (= x66 (x75 x121 (x75 x66 x121))))) (not (= (x75 x66 x100) x66)))))))
(assert (let ((x54 (x75 x55 x103)) (x71 (x75 x121 x55)) (x19 (x75 x103 x55)) (x139 (x75 x121 x103)) (x152 (x75 x121 x66)) (x100 (x75 x94 x66)) (x14 (x75 x103 x66)) (x31 (x75 x55 x55)) (x20 (x75 x66 x94)) (x52 (x75 x55 x94)) (x46 (x75 x94 x121)) (x122 (x75 x55 x121)) (x118 (x75 x121 x121)) (x30 (x75 x66 x103)) (x39 (x75 x121 x94)) (x45 (x75 x66 x121)) (x78 (x75 x55 x66)) (x43 (x75 x94 x94)) (x40 (x75 x103 x94)) (x77 (x75 x103 x121)) (x29 (x75 x66 x55)) (x37 (x75 x94 x55)) (x48 (x75 x103 x103)) (x140 (x75 x94 x103)) (x84 (x75 x66 x66))) (and (and (and (and (and (and (and (and (or (or (or (= x43 x55) (or (= x43 x103) (= x43 x94))) (= x121 x43)) (= x43 x66)) (or (= x140 x66) (or (= x121 x140) (or (= x140 x55) (or (= x140 x94) (= x103 x140)))))) (or (or (or (= x37 x55) (or (= x37 x103) (= x94 x37))) (= x121 x37)) (= x66 x37))) (or (or (or (= x55 x46) (or (= x46 x94) (= x46 x103))) (= x46 x121)) (= x46 x66))) (or (= x100 x66) (or (or (= x55 x100) (or (= x103 x100) (= x94 x100))) (= x100 x121)))) (and (or (= x14 x66) (or (= x121 x14) (or (or (= x14 x103) (= x14 x94)) (= x55 x14)))) (and (and (or (or (= x121 x19) (or (= x55 x19) (or (= x19 x103) (= x94 x19)))) (= x66 x19)) (and (or (= x66 x48) (or (= x121 x48) (or (= x55 x48) (or (= x48 x94) (= x48 x103))))) (or (= x40 x66) (or (= x40 x121) (or (= x40 x55) (or (= x40 x94) (= x103 x40))))))) (or (or (= x121 x77) (or (= x55 x77) (or (= x103 x77) (= x94 x77)))) (= x77 x66))))) (and (or (or (or (= x55 x78) (or (= x94 x78) (= x78 x103))) (= x78 x121)) (= x66 x78)) (and (or (= x122 x66) (or (= x121 x122) (or (= x122 x55) (or (= x103 x122) (= x94 x122))))) (and (or (or (= x121 x31) (or (or (= x31 x103) (= x94 x31)) (= x31 x55))) (= x31 x66)) (and (or (or (or (or (= x54 x103) (= x54 x94)) (= x55 x54)) (= x54 x121)) (= x66 x54)) (or (= x66 x52) (or (or (= x52 x55) (or (= x103 x52) (= x52 x94))) (= x121 x52)))))))) (and (and (and (and (or (or (= x121 x139) (or (= x55 x139) (or (= x139 x94) (= x103 x139)))) (= x139 x66)) (or (or (= x121 x39) (or (= x39 x55) (or (= x39 x94) (= x39 x103)))) (= x66 x39))) (or (= x71 x66) (or (= x71 x121) (or (or (= x71 x103) (= x94 x71)) (= x55 x71))))) (or (= x118 x66) (or (or (or (= x118 x103) (= x118 x94)) (= x55 x118)) (= x118 x121)))) (or (= x152 x66) (or (or (= x55 x152) (or (= x152 x94) (= x103 x152))) (= x121 x152))))) (and (and (and (or (or (or (= x55 x29) (or (= x103 x29) (= x94 x29))) (= x121 x29)) (= x66 x29)) (and (or (or (= x121 x20) (or (= x20 x55) (or (= x20 x94) (= x20 x103)))) (= x66 x20)) (or (or (= x121 x30) (or (or (= x30 x94) (= x103 x30)) (= x55 x30))) (= x66 x30)))) (or (= x45 x66) (or (= x121 x45) (or (= x45 x55) (or (= x103 x45) (= x94 x45)))))) (or (= x84 x66) (or (or (or (= x103 x84) (= x84 x94)) (= x84 x55)) (= x121 x84)))))))
(assert (and (or (= x66 (x75 x66 (x75 x66 x66))) (or (or (= (x75 x66 (x75 x66 x55)) x55) (or (= x103 (x75 x66 (x75 x66 x103))) (= x94 (x75 x66 (x75 x66 x94))))) (= (x75 x66 (x75 x66 x121)) x121))) (and (and (or (= x66 (x75 x55 (x75 x55 x66))) (or (or (= x55 (x75 x55 (x75 x55 x55))) (or (= x94 (x75 x55 (x75 x55 x94))) (= x103 (x75 x55 (x75 x55 x103))))) (= (x75 x55 (x75 x55 x121)) x121))) (and (or (= x66 (x75 x103 (x75 x103 x66))) (or (or (= (x75 x103 (x75 x103 x55)) x55) (or (= x103 (x75 x103 (x75 x103 x103))) (= (x75 x103 (x75 x103 x94)) x94))) (= (x75 x103 (x75 x103 x121)) x121))) (or (= (x75 x94 (x75 x94 x66)) x66) (or (or (or (= x94 (x75 x94 (x75 x94 x94))) (= x103 (x75 x94 (x75 x94 x103)))) (= x55 (x75 x94 (x75 x94 x55)))) (= (x75 x94 (x75 x94 x121)) x121))))) (or (= x66 (x75 x121 (x75 x121 x66))) (or (or (= (x75 x121 (x75 x121 x55)) x55) (or (= x94 (x75 x121 (x75 x121 x94))) (= x103 (x75 x121 (x75 x121 x103))))) (= x121 (x75 x121 (x75 x121 x121))))))))
(assert (let ((x46 (x75 x55 x55)) (x100 (x75 x121 x121)) (x37 (x75 x103 x103)) (x140 (x75 x94 x94)) (x40 (x75 x66 x66))) (let ((x31 (= x55 x46)) (x78 (= x66 x40)) (x122 (= x121 x100)) (x19 (= x103 x37)) (x43 (= x140 x94))) (let ((x48 (and (not (= x40 x94)) (and (not (= x100 x94)) (and (not (= x94 x46)) (and (not x43) (not (= x37 x94))))))) (x54 (and (and (and (and (not (= x66 x37)) (not (= x66 x140))) (not (= x66 x46))) (not (= x66 x100))) (not x78))) (x77 (and (not (= x40 x103)) (and (and (and (not x19) (not (= x103 x140))) (not (= x103 x46))) (not (= x103 x100))))) (x52 (and (and (and (not (= x121 x46)) (and (not (= x121 x37)) (not (= x121 x140)))) (not x122)) (not (= x40 x121)))) (x14 (and (and (not (= x100 x55)) (and (not x31) (and (not (= x37 x55)) (not (= x140 x55))))) (not (= x55 x40))))) (and (or (and (and (and (not (= (x75 x55 x40) x55)) (and (not (= x103 (x75 x103 x40))) (not (= x94 (x75 x94 x40))))) (not (= (x75 x121 x40) x121))) (not (= (x75 x66 x40) x66))) (or (and (not (= x66 (x75 x66 x100))) (and (not (= (x75 x121 x100) x121)) (and (and (not (= (x75 x103 x100) x103)) (not (= (x75 x94 x100) x94))) (not (= (x75 x55 x100) x55))))) (or (or (and (not (= x66 (x75 x66 x37))) (and (not (= (x75 x121 x37) x121)) (and (not (= x55 (x75 x55 x37))) (and (not (= (x75 x94 x37) x94)) (not (= (x75 x103 x37) x103)))))) (and (not (= (x75 x66 x140) x66)) (and (not (= (x75 x121 x140) x121)) (and (not (= x55 (x75 x55 x140))) (and (not (= x103 (x75 x103 x140))) (not (= (x75 x94 x140) x94))))))) (and (not (= x66 (x75 x66 x46))) (and (and (and (not (= (x75 x94 x46) x94)) (not (= x103 (x75 x103 x46)))) (not (= (x75 x55 x46) x55))) (not (= (x75 x121 x46) x121))))))) (or (or (or (or (or (and x54 (= x103 (x75 x103 x66))) (or (or (or (and x19 x77) (and (= x103 (x75 x103 x94)) x48)) (and (= (x75 x103 x55) x103) x14)) (and x52 (= (x75 x103 x121) x103)))) (or (or (and x52 (= (x75 x94 x121) x94)) (or (and (= (x75 x94 x55) x94) x14) (or (and x48 x43) (and x77 (= x94 (x75 x94 x103)))))) (and x54 (= x94 (x75 x94 x66))))) (or (or (or (and x14 x31) (or (and x77 (= (x75 x55 x103) x55)) (and (= (x75 x55 x94) x55) x48))) (and (= (x75 x55 x121) x55) x52)) (and x54 (= (x75 x55 x66) x55)))) (or (or (or (and (= x121 (x75 x121 x55)) x14) (or (and x77 (= (x75 x121 x103) x121)) (and x48 (= (x75 x121 x94) x121)))) (and x52 x122)) (and (= (x75 x121 x66) x121) x54))) (or (and x54 x78) (or (and (= (x75 x66 x121) x66) x52) (or (or (and (= x66 (x75 x66 x94)) x48) (and x77 (= x66 (x75 x66 x103)))) (and x14 (= (x75 x66 x55) x66)))))))))))
(assert (and (= x66 (x75 x94 x94)) (and (= x121 (x75 x103 x66)) (and (= x103 (x75 x94 x66)) (= x55 (x75 x94 x103))))))
(assert (let ((x100 (x75 x66 x66)) (x46 (x75 x121 x121)) (x43 (x75 x94 x94)) (x37 (x75 x55 x55)) (x140 (x75 x103 x103))) (or (= x66 (x75 x100 x100)) (or (or (or (= x103 (x75 x140 x140)) (= (x75 x43 x43) x94)) (= (x75 x37 x37) x55)) (= (x75 x46 x46) x121)))))
(assert (or (and (and (and (and (not (= x94 (x75 x66 x94))) (not (= x103 (x75 x66 x103)))) (not (= (x75 x66 x55) x55))) (not (= x121 (x75 x66 x121)))) (not (= x66 (x75 x66 x66)))) (or (or (or (and (not (= x66 (x75 x94 x66))) (and (and (and (not (= x94 (x75 x94 x94))) (not (= x103 (x75 x94 x103)))) (not (= x55 (x75 x94 x55)))) (not (= x121 (x75 x94 x121))))) (and (and (not (= x121 (x75 x103 x121))) (and (not (= (x75 x103 x55) x55)) (and (not (= x94 (x75 x103 x94))) (not (= x103 (x75 x103 x103)))))) (not (= (x75 x103 x66) x66)))) (and (not (= (x75 x55 x66) x66)) (and (not (= x121 (x75 x55 x121))) (and (not (= x55 (x75 x55 x55))) (and (not (= x94 (x75 x55 x94))) (not (= (x75 x55 x103) x103))))))) (and (and (and (and (not (= (x75 x121 x94) x94)) (not (= x103 (x75 x121 x103)))) (not (= (x75 x121 x55) x55))) (not (= x121 (x75 x121 x121)))) (not (= x66 (x75 x121 x66)))))))
(assert (and (and (not (= x66 x55)) (and (and (and (and (and (not (= x66 x94)) (and (and (not (= x94 x55)) (not (= x94 x103))) (not (= x94 x121)))) (not (= x55 x103))) (not (= x121 x103))) (not (= x66 x103))) (not (= x55 x121)))) (not (= x66 x121))))
(assert (let ((x139 (x75 x121 x103)) (x45 (x75 x66 x121)) (x84 (x75 x66 x66)) (x140 (x75 x94 x103)) (x71 (x75 x121 x55)) (x43 (x75 x94 x94)) (x118 (x75 x121 x121)) (x14 (x75 x103 x66)) (x37 (x75 x94 x55)) (x29 (x75 x66 x55)) (x152 (x75 x121 x66)) (x31 (x75 x55 x55)) (x39 (x75 x121 x94)) (x30 (x75 x66 x103)) (x46 (x75 x94 x121)) (x100 (x75 x94 x66)) (x19 (x75 x103 x55)) (x78 (x75 x55 x66)) (x77 (x75 x103 x121)) (x52 (x75 x55 x94)) (x40 (x75 x103 x94)) (x20 (x75 x66 x94)) (x122 (x75 x55 x121)) (x48 (x75 x103 x103)) (x54 (x75 x55 x103))) (or (and (and (and (not (= x55 (x75 x29 x29))) (and (not (= (x75 x20 x20) x94)) (not (= x103 (x75 x30 x30))))) (not (= (x75 x45 x45) x121))) (not (= x66 (x75 x84 x84)))) (or (or (and (not (= x66 (x75 x78 x78))) (and (and (not (= (x75 x31 x31) x55)) (and (not (= x94 (x75 x52 x52))) (not (= (x75 x54 x54) x103)))) (not (= x121 (x75 x122 x122))))) (or (and (and (and (not (= (x75 x19 x19) x55)) (and (not (= (x75 x40 x40) x94)) (not (= x103 (x75 x48 x48))))) (not (= x121 (x75 x77 x77)))) (not (= x66 (x75 x14 x14)))) (and (not (= (x75 x100 x100) x66)) (and (not (= (x75 x46 x46) x121)) (and (and (not (= x103 (x75 x140 x140))) (not (= x94 (x75 x43 x43)))) (not (= x55 (x75 x37 x37)))))))) (and (not (= x66 (x75 x152 x152))) (and (not (= (x75 x118 x118) x121)) (and (and (not (= (x75 x139 x139) x103)) (not (= (x75 x39 x39) x94))) (not (= (x75 x71 x71) x55)))))))))
(check-sat)
(exit)
